Problem:    a
Rows:       160
Columns:    169 (168 integer, 156 binary)
Non-zeros:  866
Status:     INTEGER OPTIMAL
Objective:  z = 19730.0748 (MINimum)

   No.   Row name        Activity     Lower bound   Upper bound
------ ------------    ------------- ------------- -------------
     1 z                     19730.1                             
     2 cantDeKm                    0            -0             = 
     3 orden[1,2]                  1                          12 
     4 orden[1,3]                 12                          12 
     5 orden[1,4]                 -3                          12 
     6 orden[1,5]                 -7                          12 
     7 orden[1,6]                 -8                          12 
     8 orden[1,7]                -10                          12 
     9 orden[1,8]                 -9                          12 
    10 orden[1,9]                 -2                          12 
    11 orden[1,10]                -5                          12 
    12 orden[1,11]                -6                          12 
    13 orden[1,12]                -4                          12 
    14 orden[2,1]                 12                          12 
    15 orden[2,3]                 -2                          12 
    16 orden[2,4]                 -4                          12 
    17 orden[2,5]                 -8                          12 
    18 orden[2,6]                 -9                          12 
    19 orden[2,7]                -11                          12 
    20 orden[2,8]                -10                          12 
    21 orden[2,9]                 -3                          12 
    22 orden[2,10]                -6                          12 
    23 orden[2,11]                -7                          12 
    24 orden[2,12]                -5                          12 
    25 orden[3,1]                  1                          12 
    26 orden[3,2]                  2                          12 
    27 orden[3,4]                 -2                          12 
    28 orden[3,5]                 -6                          12 
    29 orden[3,6]                 -7                          12 
    30 orden[3,7]                 -9                          12 
    31 orden[3,8]                 -8                          12 
    32 orden[3,9]                 12                          12 
    33 orden[3,10]                -4                          12 
    34 orden[3,11]                -5                          12 
    35 orden[3,12]                -3                          12 
    36 orden[4,1]                  3                          12 
    37 orden[4,2]                  4                          12 
    38 orden[4,3]                  2                          12 
    39 orden[4,5]                 -4                          12 
    40 orden[4,6]                 -5                          12 
    41 orden[4,7]                 -7                          12 
    42 orden[4,8]                 -6                          12 
    43 orden[4,9]                  1                          12 
    44 orden[4,10]                -2                          12 
    45 orden[4,11]                -3                          12 
    46 orden[4,12]                12                          12 
    47 orden[5,1]                  7                          12 
    48 orden[5,2]                  8                          12 
    49 orden[5,3]                  6                          12 
    50 orden[5,4]                  4                          12 
    51 orden[5,6]                 12                          12 
    52 orden[5,7]                 -3                          12 
    53 orden[5,8]                 -2                          12 
    54 orden[5,9]                  5                          12 
    55 orden[5,10]                 2                          12 
    56 orden[5,11]                 1                          12 
    57 orden[5,12]                 3                          12 
    58 orden[6,1]                  8                          12 
    59 orden[6,2]                  9                          12 
    60 orden[6,3]                  7                          12 
    61 orden[6,4]                  5                          12 
    62 orden[6,5]                  1                          12 
    63 orden[6,7]                 -2                          12 
    64 orden[6,8]                 12                          12 
    65 orden[6,9]                  6                          12 
    66 orden[6,10]                 3                          12 
    67 orden[6,11]                 2                          12 
    68 orden[6,12]                 4                          12 
    69 orden[7,1]                 10                          12 
    70 orden[7,2]                 11                          12 
    71 orden[7,3]                  9                          12 
    72 orden[7,4]                  7                          12 
    73 orden[7,5]                  3                          12 
    74 orden[7,6]                  2                          12 
    75 orden[7,8]                  1                          12 
    76 orden[7,9]                  8                          12 
    77 orden[7,10]                 5                          12 
    78 orden[7,11]                 4                          12 
    79 orden[7,12]                 6                          12 
    80 orden[8,1]                  9                          12 
    81 orden[8,2]                 10                          12 
    82 orden[8,3]                  8                          12 
    83 orden[8,4]                  6                          12 
    84 orden[8,5]                  2                          12 
    85 orden[8,6]                  1                          12 
    86 orden[8,7]                 12                          12 
    87 orden[8,9]                  7                          12 
    88 orden[8,10]                 4                          12 
    89 orden[8,11]                 3                          12 
    90 orden[8,12]                 5                          12 
    91 orden[9,1]                  2                          12 
    92 orden[9,2]                  3                          12 
    93 orden[9,3]                  1                          12 
    94 orden[9,4]                 12                          12 
    95 orden[9,5]                 -5                          12 
    96 orden[9,6]                 -6                          12 
    97 orden[9,7]                 -8                          12 
    98 orden[9,8]                 -7                          12 
    99 orden[9,10]                -3                          12 
   100 orden[9,11]                -4                          12 
   101 orden[9,12]                -2                          12 
   102 orden[10,1]                 5                          12 
   103 orden[10,2]                 6                          12 
   104 orden[10,3]                 4                          12 
   105 orden[10,4]                 2                          12 
   106 orden[10,5]                -2                          12 
   107 orden[10,6]                -3                          12 
   108 orden[10,7]                -5                          12 
   109 orden[10,8]                -4                          12 
   110 orden[10,9]                 3                          12 
   111 orden[10,11]               12                          12 
   112 orden[10,12]                1                          12 
   113 orden[11,1]                 6                          12 
   114 orden[11,2]                 7                          12 
   115 orden[11,3]                 5                          12 
   116 orden[11,4]                 3                          12 
   117 orden[11,5]                12                          12 
   118 orden[11,6]                -2                          12 
   119 orden[11,7]                -4                          12 
   120 orden[11,8]                -3                          12 
   121 orden[11,9]                 4                          12 
   122 orden[11,10]                1                          12 
   123 orden[11,12]                2                          12 
   124 orden[12,1]                 4                          12 
   125 orden[12,2]                 5                          12 
   126 orden[12,3]                 3                          12 
   127 orden[12,4]                 1                          12 
   128 orden[12,5]                -3                          12 
   129 orden[12,6]                -4                          12 
   130 orden[12,7]                -6                          12 
   131 orden[12,8]                -5                          12 
   132 orden[12,9]                 2                          12 
   133 orden[12,10]               12                          12 
   134 orden[12,11]               -2                          12 
   135 saleDeI[0]                  1             1             = 
   136 saleDeI[1]                  1             1             = 
   137 saleDeI[2]                  1             1             = 
   138 saleDeI[3]                  1             1             = 
   139 saleDeI[4]                  1             1             = 
   140 saleDeI[5]                  1             1             = 
   141 saleDeI[6]                  1             1             = 
   142 saleDeI[7]                  1             1             = 
   143 saleDeI[8]                  1             1             = 
   144 saleDeI[9]                  1             1             = 
   145 saleDeI[10]                 1             1             = 
   146 saleDeI[11]                 1             1             = 
   147 saleDeI[12]                 1             1             = 
   148 llegaAJ[0]                  1             1             = 
   149 llegaAJ[1]                  1             1             = 
   150 llegaAJ[2]                  1             1             = 
   151 llegaAJ[3]                  1             1             = 
   152 llegaAJ[4]                  1             1             = 
   153 llegaAJ[5]                  1             1             = 
   154 llegaAJ[6]                  1             1             = 
   155 llegaAJ[7]                  1             1             = 
   156 llegaAJ[8]                  1             1             = 
   157 llegaAJ[9]                  1             1             = 
   158 llegaAJ[10]                 1             1             = 
   159 llegaAJ[11]                 1             1             = 
   160 llegaAJ[12]                 1             1             = 

   No. Column name       Activity     Lower bound   Upper bound
------ ------------    ------------- ------------- -------------
     1 U[2]         *              0             0               
     2 U[1]         *              1             0               
     3 U[3]         *              2             0               
     4 U[4]         *              4             0               
     5 U[5]         *              8             0               
     6 U[6]         *              9             0               
     7 U[7]         *             11             0               
     8 U[8]         *             10             0               
     9 U[9]         *              3             0               
    10 U[10]        *              6             0               
    11 U[11]        *              7             0               
    12 U[12]        *              5             0               
    13 Y[0,1]       *              0             0             1 
    14 Y[0,2]       *              1             0             1 
    15 Y[0,3]       *              0             0             1 
    16 Y[0,4]       *              0             0             1 
    17 Y[0,5]       *              0             0             1 
    18 Y[0,6]       *              0             0             1 
    19 Y[0,7]       *              0             0             1 
    20 Y[0,8]       *              0             0             1 
    21 Y[0,9]       *              0             0             1 
    22 Y[0,10]      *              0             0             1 
    23 Y[0,11]      *              0             0             1 
    24 Y[0,12]      *              0             0             1 
    25 Y[1,0]       *              0             0             1 
    26 Y[1,2]       *              0             0             1 
    27 Y[1,3]       *              1             0             1 
    28 Y[1,4]       *              0             0             1 
    29 Y[1,5]       *              0             0             1 
    30 Y[1,6]       *              0             0             1 
    31 Y[1,7]       *              0             0             1 
    32 Y[1,8]       *              0             0             1 
    33 Y[1,9]       *              0             0             1 
    34 Y[1,10]      *              0             0             1 
    35 Y[1,11]      *              0             0             1 
    36 Y[1,12]      *              0             0             1 
    37 Y[2,0]       *              0             0             1 
    38 Y[2,1]       *              1             0             1 
    39 Y[2,3]       *              0             0             1 
    40 Y[2,4]       *              0             0             1 
    41 Y[2,5]       *              0             0             1 
    42 Y[2,6]       *              0             0             1 
    43 Y[2,7]       *              0             0             1 
    44 Y[2,8]       *              0             0             1 
    45 Y[2,9]       *              0             0             1 
    46 Y[2,10]      *              0             0             1 
    47 Y[2,11]      *              0             0             1 
    48 Y[2,12]      *              0             0             1 
    49 Y[3,0]       *              0             0             1 
    50 Y[3,1]       *              0             0             1 
    51 Y[3,2]       *              0             0             1 
    52 Y[3,4]       *              0             0             1 
    53 Y[3,5]       *              0             0             1 
    54 Y[3,6]       *              0             0             1 
    55 Y[3,7]       *              0             0             1 
    56 Y[3,8]       *              0             0             1 
    57 Y[3,9]       *              1             0             1 
    58 Y[3,10]      *              0             0             1 
    59 Y[3,11]      *              0             0             1 
    60 Y[3,12]      *              0             0             1 
    61 Y[4,0]       *              0             0             1 
    62 Y[4,1]       *              0             0             1 
    63 Y[4,2]       *              0             0             1 
    64 Y[4,3]       *              0             0             1 
    65 Y[4,5]       *              0             0             1 
    66 Y[4,6]       *              0             0             1 
    67 Y[4,7]       *              0             0             1 
    68 Y[4,8]       *              0             0             1 
    69 Y[4,9]       *              0             0             1 
    70 Y[4,10]      *              0             0             1 
    71 Y[4,11]      *              0             0             1 
    72 Y[4,12]      *              1             0             1 
    73 Y[5,0]       *              0             0             1 
    74 Y[5,1]       *              0             0             1 
    75 Y[5,2]       *              0             0             1 
    76 Y[5,3]       *              0             0             1 
    77 Y[5,4]       *              0             0             1 
    78 Y[5,6]       *              1             0             1 
    79 Y[5,7]       *              0             0             1 
    80 Y[5,8]       *              0             0             1 
    81 Y[5,9]       *              0             0             1 
    82 Y[5,10]      *              0             0             1 
    83 Y[5,11]      *              0             0             1 
    84 Y[5,12]      *              0             0             1 
    85 Y[6,0]       *              0             0             1 
    86 Y[6,1]       *              0             0             1 
    87 Y[6,2]       *              0             0             1 
    88 Y[6,3]       *              0             0             1 
    89 Y[6,4]       *              0             0             1 
    90 Y[6,5]       *              0             0             1 
    91 Y[6,7]       *              0             0             1 
    92 Y[6,8]       *              1             0             1 
    93 Y[6,9]       *              0             0             1 
    94 Y[6,10]      *              0             0             1 
    95 Y[6,11]      *              0             0             1 
    96 Y[6,12]      *              0             0             1 
    97 Y[7,0]       *              1             0             1 
    98 Y[7,1]       *              0             0             1 
    99 Y[7,2]       *              0             0             1 
   100 Y[7,3]       *              0             0             1 
   101 Y[7,4]       *              0             0             1 
   102 Y[7,5]       *              0             0             1 
   103 Y[7,6]       *              0             0             1 
   104 Y[7,8]       *              0             0             1 
   105 Y[7,9]       *              0             0             1 
   106 Y[7,10]      *              0             0             1 
   107 Y[7,11]      *              0             0             1 
   108 Y[7,12]      *              0             0             1 
   109 Y[8,0]       *              0             0             1 
   110 Y[8,1]       *              0             0             1 
   111 Y[8,2]       *              0             0             1 
   112 Y[8,3]       *              0             0             1 
   113 Y[8,4]       *              0             0             1 
   114 Y[8,5]       *              0             0             1 
   115 Y[8,6]       *              0             0             1 
   116 Y[8,7]       *              1             0             1 
   117 Y[8,9]       *              0             0             1 
   118 Y[8,10]      *              0             0             1 
   119 Y[8,11]      *              0             0             1 
   120 Y[8,12]      *              0             0             1 
   121 Y[9,0]       *              0             0             1 
   122 Y[9,1]       *              0             0             1 
   123 Y[9,2]       *              0             0             1 
   124 Y[9,3]       *              0             0             1 
   125 Y[9,4]       *              1             0             1 
   126 Y[9,5]       *              0             0             1 
   127 Y[9,6]       *              0             0             1 
   128 Y[9,7]       *              0             0             1 
   129 Y[9,8]       *              0             0             1 
   130 Y[9,10]      *              0             0             1 
   131 Y[9,11]      *              0             0             1 
   132 Y[9,12]      *              0             0             1 
   133 Y[10,0]      *              0             0             1 
   134 Y[10,1]      *              0             0             1 
   135 Y[10,2]      *              0             0             1 
   136 Y[10,3]      *              0             0             1 
   137 Y[10,4]      *              0             0             1 
   138 Y[10,5]      *              0             0             1 
   139 Y[10,6]      *              0             0             1 
   140 Y[10,7]      *              0             0             1 
   141 Y[10,8]      *              0             0             1 
   142 Y[10,9]      *              0             0             1 
   143 Y[10,11]     *              1             0             1 
   144 Y[10,12]     *              0             0             1 
   145 Y[11,0]      *              0             0             1 
   146 Y[11,1]      *              0             0             1 
   147 Y[11,2]      *              0             0             1 
   148 Y[11,3]      *              0             0             1 
   149 Y[11,4]      *              0             0             1 
   150 Y[11,5]      *              1             0             1 
   151 Y[11,6]      *              0             0             1 
   152 Y[11,7]      *              0             0             1 
   153 Y[11,8]      *              0             0             1 
   154 Y[11,9]      *              0             0             1 
   155 Y[11,10]     *              0             0             1 
   156 Y[11,12]     *              0             0             1 
   157 Y[12,0]      *              0             0             1 
   158 Y[12,1]      *              0             0             1 
   159 Y[12,2]      *              0             0             1 
   160 Y[12,3]      *              0             0             1 
   161 Y[12,4]      *              0             0             1 
   162 Y[12,5]      *              0             0             1 
   163 Y[12,6]      *              0             0             1 
   164 Y[12,7]      *              0             0             1 
   165 Y[12,8]      *              0             0             1 
   166 Y[12,9]      *              0             0             1 
   167 Y[12,10]     *              1             0             1 
   168 Y[12,11]     *              0             0             1 
   169 D                     19730.1             0               

Integer feasibility conditions:

KKT.PE: max.abs.err = 0.00e+00 on row 0
        max.rel.err = 0.00e+00 on row 0
        High quality

KKT.PB: max.abs.err = 0.00e+00 on row 0
        max.rel.err = 0.00e+00 on row 0
        High quality

End of output
